c turning on binary mode checking
c parsing input formula with 259840 variables and 1039929 clauses
c finished parsing, read 23064743 bytes from proof file
c detected empty clause; start verification via backward checking
c 11549 of 1039929 clauses in core                            
c 12206 of 608302 lemmas in core using 176115 resolution steps
c 0 RAT lemmas in core; 1173 redundant literals in core lemmas
s VERIFIED
c verification time: 3.215 seconds
